c t mc
c file mc2022_track1_169.cnf
p cnf 150 1525
-1 51 -101 0
1 -51 -101 0
-1 -51 -101 0
-2 52 -102 0
2 -52 -102 0
-2 -52 -102 0
-3 53 -103 0
3 -53 -103 0
-3 -53 -103 0
-4 54 -104 0
4 -54 -104 0
-4 -54 -104 0
-5 55 -105 0
5 -55 -105 0
-5 -55 -105 0
-6 56 -106 0
6 -56 -106 0
-6 -56 -106 0
-7 57 -107 0
7 -57 -107 0
-7 -57 -107 0
-8 58 -108 0
8 -58 -108 0
-8 -58 -108 0
-9 59 -109 0
9 -59 -109 0
-9 -59 -109 0
-10 60 -110 0
10 -60 -110 0
-10 -60 -110 0
-11 61 -111 0
11 -61 -111 0
-11 -61 -111 0
-12 62 -112 0
12 -62 -112 0
-12 -62 -112 0
-13 63 -113 0
13 -63 -113 0
-13 -63 -113 0
-14 64 -114 0
14 -64 -114 0
-14 -64 -114 0
-15 65 -115 0
15 -65 -115 0
-15 -65 -115 0
-16 66 -116 0
16 -66 -116 0
-16 -66 -116 0
-17 67 -117 0
17 -67 -117 0
-17 -67 -117 0
-18 68 -118 0
18 -68 -118 0
-18 -68 -118 0
-19 69 -119 0
19 -69 -119 0
-19 -69 -119 0
-20 70 -120 0
20 -70 -120 0
-20 -70 -120 0
-21 71 -121 0
21 -71 -121 0
-21 -71 -121 0
-22 72 -122 0
22 -72 -122 0
-22 -72 -122 0
-23 73 -123 0
23 -73 -123 0
-23 -73 -123 0
-24 74 -124 0
24 -74 -124 0
-24 -74 -124 0
-25 75 -125 0
25 -75 -125 0
-25 -75 -125 0
-26 76 -126 0
26 -76 -126 0
-26 -76 -126 0
-27 77 -127 0
27 -77 -127 0
-27 -77 -127 0
-28 78 -128 0
28 -78 -128 0
-28 -78 -128 0
-29 79 -129 0
29 -79 -129 0
-29 -79 -129 0
-30 80 -130 0
30 -80 -130 0
-30 -80 -130 0
-31 81 -131 0
31 -81 -131 0
-31 -81 -131 0
-32 82 -132 0
32 -82 -132 0
-32 -82 -132 0
-33 83 -133 0
33 -83 -133 0
-33 -83 -133 0
-34 84 -134 0
34 -84 -134 0
-34 -84 -134 0
-35 85 -135 0
35 -85 -135 0
-35 -85 -135 0
-36 86 -136 0
36 -86 -136 0
-36 -86 -136 0
-37 87 -137 0
37 -87 -137 0
-37 -87 -137 0
-38 88 -138 0
38 -88 -138 0
-38 -88 -138 0
-39 89 -139 0
39 -89 -139 0
-39 -89 -139 0
-40 90 -140 0
40 -90 -140 0
-40 -90 -140 0
-41 91 -141 0
41 -91 -141 0
-41 -91 -141 0
-42 92 -142 0
42 -92 -142 0
-42 -92 -142 0
-43 93 -143 0
43 -93 -143 0
-43 -93 -143 0
-44 94 -144 0
44 -94 -144 0
-44 -94 -144 0
-45 95 -145 0
45 -95 -145 0
-45 -95 -145 0
-46 96 -146 0
46 -96 -146 0
-46 -96 -146 0
-47 97 -147 0
47 -97 -147 0
-47 -97 -147 0
-48 98 -148 0
48 -98 -148 0
-48 -98 -148 0
-49 99 -149 0
49 -99 -149 0
-49 -99 -149 0
-50 100 -150 0
50 -100 -150 0
-50 -100 -150 0
1 51 101 10 60 110 0
-1 51 101 -10 60 110 0
1 -51 101 10 -60 110 0
-1 -51 101 -10 -60 110 0
1 51 -101 10 60 -110 0
1 51 101 47 97 147 0
-1 51 101 -47 97 147 0
1 -51 101 47 -97 147 0
-1 -51 101 -47 -97 147 0
1 51 -101 47 97 -147 0
1 51 101 25 75 125 0
-1 51 101 -25 75 125 0
1 -51 101 25 -75 125 0
-1 -51 101 -25 -75 125 0
1 51 -101 25 75 -125 0
1 51 101 27 77 127 0
-1 51 101 -27 77 127 0
1 -51 101 27 -77 127 0
-1 -51 101 -27 -77 127 0
1 51 -101 27 77 -127 0
1 51 101 4 54 104 0
-1 51 101 -4 54 104 0
1 -51 101 4 -54 104 0
-1 -51 101 -4 -54 104 0
1 51 -101 4 54 -104 0
1 51 101 41 91 141 0
-1 51 101 -41 91 141 0
1 -51 101 41 -91 141 0
-1 -51 101 -41 -91 141 0
1 51 -101 41 91 -141 0
1 51 101 38 88 138 0
-1 51 101 -38 88 138 0
1 -51 101 38 -88 138 0
-1 -51 101 -38 -88 138 0
1 51 -101 38 88 -138 0
1 51 101 14 64 114 0
-1 51 101 -14 64 114 0
1 -51 101 14 -64 114 0
-1 -51 101 -14 -64 114 0
1 51 -101 14 64 -114 0
1 51 101 6 56 106 0
-1 51 101 -6 56 106 0
1 -51 101 6 -56 106 0
-1 -51 101 -6 -56 106 0
1 51 -101 6 56 -106 0
1 51 101 27 77 127 0
-1 51 101 -27 77 127 0
1 -51 101 27 -77 127 0
-1 -51 101 -27 -77 127 0
1 51 -101 27 77 -127 0
1 51 101 25 75 125 0
-1 51 101 -25 75 125 0
1 -51 101 25 -75 125 0
-1 -51 101 -25 -75 125 0
1 51 -101 25 75 -125 0
2 52 102 12 62 112 0
-2 52 102 -12 62 112 0
2 -52 102 12 -62 112 0
-2 -52 102 -12 -62 112 0
2 52 -102 12 62 -112 0
2 52 102 5 55 105 0
-2 52 102 -5 55 105 0
2 -52 102 5 -55 105 0
-2 -52 102 -5 -55 105 0
2 52 -102 5 55 -105 0
2 52 102 46 96 146 0
-2 52 102 -46 96 146 0
2 -52 102 46 -96 146 0
-2 -52 102 -46 -96 146 0
2 52 -102 46 96 -146 0
2 52 102 30 80 130 0
-2 52 102 -30 80 130 0
2 -52 102 30 -80 130 0
-2 -52 102 -30 -80 130 0
2 52 -102 30 80 -130 0
2 52 102 4 54 104 0
-2 52 102 -4 54 104 0
2 -52 102 4 -54 104 0
-2 -52 102 -4 -54 104 0
2 52 -102 4 54 -104 0
2 52 102 44 94 144 0
-2 52 102 -44 94 144 0
2 -52 102 44 -94 144 0
-2 -52 102 -44 -94 144 0
2 52 -102 44 94 -144 0
2 52 102 32 82 132 0
-2 52 102 -32 82 132 0
2 -52 102 32 -82 132 0
-2 -52 102 -32 -82 132 0
2 52 -102 32 82 -132 0
2 52 102 5 55 105 0
-2 52 102 -5 55 105 0
2 -52 102 5 -55 105 0
-2 -52 102 -5 -55 105 0
2 52 -102 5 55 -105 0
2 52 102 7 57 107 0
-2 52 102 -7 57 107 0
2 -52 102 7 -57 107 0
-2 -52 102 -7 -57 107 0
2 52 -102 7 57 -107 0
2 52 102 43 93 143 0
-2 52 102 -43 93 143 0
2 -52 102 43 -93 143 0
-2 -52 102 -43 -93 143 0
2 52 -102 43 93 -143 0
2 52 102 33 83 133 0
-2 52 102 -33 83 133 0
2 -52 102 33 -83 133 0
-2 -52 102 -33 -83 133 0
2 52 -102 33 83 -133 0
3 53 103 43 93 143 0
-3 53 103 -43 93 143 0
3 -53 103 43 -93 143 0
-3 -53 103 -43 -93 143 0
3 53 -103 43 93 -143 0
3 53 103 31 81 131 0
-3 53 103 -31 81 131 0
3 -53 103 31 -81 131 0
-3 -53 103 -31 -81 131 0
3 53 -103 31 81 -131 0
3 53 103 26 76 126 0
-3 53 103 -26 76 126 0
3 -53 103 26 -76 126 0
-3 -53 103 -26 -76 126 0
3 53 -103 26 76 -126 0
3 53 103 9 59 109 0
-3 53 103 -9 59 109 0
3 -53 103 9 -59 109 0
-3 -53 103 -9 -59 109 0
3 53 -103 9 59 -109 0
3 53 103 29 79 129 0
-3 53 103 -29 79 129 0
3 -53 103 29 -79 129 0
-3 -53 103 -29 -79 129 0
3 53 -103 29 79 -129 0
3 53 103 11 61 111 0
-3 53 103 -11 61 111 0
3 -53 103 11 -61 111 0
-3 -53 103 -11 -61 111 0
3 53 -103 11 61 -111 0
3 53 103 26 76 126 0
-3 53 103 -26 76 126 0
3 -53 103 26 -76 126 0
-3 -53 103 -26 -76 126 0
3 53 -103 26 76 -126 0
3 53 103 31 81 131 0
-3 53 103 -31 81 131 0
3 -53 103 31 -81 131 0
-3 -53 103 -31 -81 131 0
3 53 -103 31 81 -131 0
3 53 103 6 56 106 0
-3 53 103 -6 56 106 0
3 -53 103 6 -56 106 0
-3 -53 103 -6 -56 106 0
3 53 -103 6 56 -106 0
3 53 103 42 92 142 0
-3 53 103 -42 92 142 0
3 -53 103 42 -92 142 0
-3 -53 103 -42 -92 142 0
3 53 -103 42 92 -142 0
3 53 103 13 63 113 0
-3 53 103 -13 63 113 0
3 -53 103 13 -63 113 0
-3 -53 103 -13 -63 113 0
3 53 -103 13 63 -113 0
4 54 104 12 62 112 0
-4 54 104 -12 62 112 0
4 -54 104 12 -62 112 0
-4 -54 104 -12 -62 112 0
4 54 -104 12 62 -112 0
4 54 104 34 84 134 0
-4 54 104 -34 84 134 0
4 -54 104 34 -84 134 0
-4 -54 104 -34 -84 134 0
4 54 -104 34 84 -134 0
4 54 104 41 91 141 0
-4 54 104 -41 91 141 0
4 -54 104 41 -91 141 0
-4 -54 104 -41 -91 141 0
4 54 -104 41 91 -141 0
4 54 104 11 61 111 0
-4 54 104 -11 61 111 0
4 -54 104 11 -61 111 0
-4 -54 104 -11 -61 111 0
4 54 -104 11 61 -111 0
4 54 104 35 85 135 0
-4 54 104 -35 85 135 0
4 -54 104 35 -85 135 0
-4 -54 104 -35 -85 135 0
4 54 -104 35 85 -135 0
4 54 104 28 78 128 0
-4 54 104 -28 78 128 0
4 -54 104 28 -78 128 0
-4 -54 104 -28 -78 128 0
4 54 -104 28 78 -128 0
4 54 104 23 73 123 0
-4 54 104 -23 73 123 0
4 -54 104 23 -73 123 0
-4 -54 104 -23 -73 123 0
4 54 -104 23 73 -123 0
4 54 104 48 98 148 0
-4 54 104 -48 98 148 0
4 -54 104 48 -98 148 0
-4 -54 104 -48 -98 148 0
4 54 -104 48 98 -148 0
4 54 104 35 85 135 0
-4 54 104 -35 85 135 0
4 -54 104 35 -85 135 0
-4 -54 104 -35 -85 135 0
4 54 -104 35 85 -135 0
5 55 105 37 87 137 0
-5 55 105 -37 87 137 0
5 -55 105 37 -87 137 0
-5 -55 105 -37 -87 137 0
5 55 -105 37 87 -137 0
5 55 105 9 59 109 0
-5 55 105 -9 59 109 0
5 -55 105 9 -59 109 0
-5 -55 105 -9 -59 109 0
5 55 -105 9 59 -109 0
5 55 105 41 91 141 0
-5 55 105 -41 91 141 0
5 -55 105 41 -91 141 0
-5 -55 105 -41 -91 141 0
5 55 -105 41 91 -141 0
5 55 105 22 72 122 0
-5 55 105 -22 72 122 0
5 -55 105 22 -72 122 0
-5 -55 105 -22 -72 122 0
5 55 -105 22 72 -122 0
5 55 105 30 80 130 0
-5 55 105 -30 80 130 0
5 -55 105 30 -80 130 0
-5 -55 105 -30 -80 130 0
5 55 -105 30 80 -130 0
5 55 105 22 72 122 0
-5 55 105 -22 72 122 0
5 -55 105 22 -72 122 0
-5 -55 105 -22 -72 122 0
5 55 -105 22 72 -122 0
5 55 105 49 99 149 0
-5 55 105 -49 99 149 0
5 -55 105 49 -99 149 0
-5 -55 105 -49 -99 149 0
5 55 -105 49 99 -149 0
5 55 105 12 62 112 0
-5 55 105 -12 62 112 0
5 -55 105 12 -62 112 0
-5 -55 105 -12 -62 112 0
5 55 -105 12 62 -112 0
5 55 105 37 87 137 0
-5 55 105 -37 87 137 0
5 -55 105 37 -87 137 0
-5 -55 105 -37 -87 137 0
5 55 -105 37 87 -137 0
6 56 106 16 66 116 0
-6 56 106 -16 66 116 0
6 -56 106 16 -66 116 0
-6 -56 106 -16 -66 116 0
6 56 -106 16 66 -116 0
6 56 106 12 62 112 0
-6 56 106 -12 62 112 0
6 -56 106 12 -62 112 0
-6 -56 106 -12 -62 112 0
6 56 -106 12 62 -112 0
6 56 106 41 91 141 0
-6 56 106 -41 91 141 0
6 -56 106 41 -91 141 0
-6 -56 106 -41 -91 141 0
6 56 -106 41 91 -141 0
6 56 106 47 97 147 0
-6 56 106 -47 97 147 0
6 -56 106 47 -97 147 0
-6 -56 106 -47 -97 147 0
6 56 -106 47 97 -147 0
6 56 106 47 97 147 0
-6 56 106 -47 97 147 0
6 -56 106 47 -97 147 0
-6 -56 106 -47 -97 147 0
6 56 -106 47 97 -147 0
6 56 106 49 99 149 0
-6 56 106 -49 99 149 0
6 -56 106 49 -99 149 0
-6 -56 106 -49 -99 149 0
6 56 -106 49 99 -149 0
6 56 106 44 94 144 0
-6 56 106 -44 94 144 0
6 -56 106 44 -94 144 0
-6 -56 106 -44 -94 144 0
6 56 -106 44 94 -144 0
6 56 106 35 85 135 0
-6 56 106 -35 85 135 0
6 -56 106 35 -85 135 0
-6 -56 106 -35 -85 135 0
6 56 -106 35 85 -135 0
6 56 106 15 65 115 0
-6 56 106 -15 65 115 0
6 -56 106 15 -65 115 0
-6 -56 106 -15 -65 115 0
6 56 -106 15 65 -115 0
7 57 107 25 75 125 0
-7 57 107 -25 75 125 0
7 -57 107 25 -75 125 0
-7 -57 107 -25 -75 125 0
7 57 -107 25 75 -125 0
7 57 107 28 78 128 0
-7 57 107 -28 78 128 0
7 -57 107 28 -78 128 0
-7 -57 107 -28 -78 128 0
7 57 -107 28 78 -128 0
7 57 107 36 86 136 0
-7 57 107 -36 86 136 0
7 -57 107 36 -86 136 0
-7 -57 107 -36 -86 136 0
7 57 -107 36 86 -136 0
7 57 107 43 93 143 0
-7 57 107 -43 93 143 0
7 -57 107 43 -93 143 0
-7 -57 107 -43 -93 143 0
7 57 -107 43 93 -143 0
7 57 107 20 70 120 0
-7 57 107 -20 70 120 0
7 -57 107 20 -70 120 0
-7 -57 107 -20 -70 120 0
7 57 -107 20 70 -120 0
7 57 107 14 64 114 0
-7 57 107 -14 64 114 0
7 -57 107 14 -64 114 0
-7 -57 107 -14 -64 114 0
7 57 -107 14 64 -114 0
7 57 107 32 82 132 0
-7 57 107 -32 82 132 0
7 -57 107 32 -82 132 0
-7 -57 107 -32 -82 132 0
7 57 -107 32 82 -132 0
7 57 107 20 70 120 0
-7 57 107 -20 70 120 0
7 -57 107 20 -70 120 0
-7 -57 107 -20 -70 120 0
7 57 -107 20 70 -120 0
7 57 107 28 78 128 0
-7 57 107 -28 78 128 0
7 -57 107 28 -78 128 0
-7 -57 107 -28 -78 128 0
7 57 -107 28 78 -128 0
7 57 107 16 66 116 0
-7 57 107 -16 66 116 0
7 -57 107 16 -66 116 0
-7 -57 107 -16 -66 116 0
7 57 -107 16 66 -116 0
8 58 108 23 73 123 0
-8 58 108 -23 73 123 0
8 -58 108 23 -73 123 0
-8 -58 108 -23 -73 123 0
8 58 -108 23 73 -123 0
8 58 108 30 80 130 0
-8 58 108 -30 80 130 0
8 -58 108 30 -80 130 0
-8 -58 108 -30 -80 130 0
8 58 -108 30 80 -130 0
8 58 108 42 92 142 0
-8 58 108 -42 92 142 0
8 -58 108 42 -92 142 0
-8 -58 108 -42 -92 142 0
8 58 -108 42 92 -142 0
8 58 108 37 87 137 0
-8 58 108 -37 87 137 0
8 -58 108 37 -87 137 0
-8 -58 108 -37 -87 137 0
8 58 -108 37 87 -137 0
8 58 108 38 88 138 0
-8 58 108 -38 88 138 0
8 -58 108 38 -88 138 0
-8 -58 108 -38 -88 138 0
8 58 -108 38 88 -138 0
8 58 108 50 100 150 0
-8 58 108 -50 100 150 0
8 -58 108 50 -100 150 0
-8 -58 108 -50 -100 150 0
8 58 -108 50 100 -150 0
8 58 108 34 84 134 0
-8 58 108 -34 84 134 0
8 -58 108 34 -84 134 0
-8 -58 108 -34 -84 134 0
8 58 -108 34 84 -134 0
8 58 108 34 84 134 0
-8 58 108 -34 84 134 0
8 -58 108 34 -84 134 0
-8 -58 108 -34 -84 134 0
8 58 -108 34 84 -134 0
8 58 108 17 67 117 0
-8 58 108 -17 67 117 0
8 -58 108 17 -67 117 0
-8 -58 108 -17 -67 117 0
8 58 -108 17 67 -117 0
8 58 108 18 68 118 0
-8 58 108 -18 68 118 0
8 -58 108 18 -68 118 0
-8 -58 108 -18 -68 118 0
8 58 -108 18 68 -118 0
8 58 108 25 75 125 0
-8 58 108 -25 75 125 0
8 -58 108 25 -75 125 0
-8 -58 108 -25 -75 125 0
8 58 -108 25 75 -125 0
9 59 109 12 62 112 0
-9 59 109 -12 62 112 0
9 -59 109 12 -62 112 0
-9 -59 109 -12 -62 112 0
9 59 -109 12 62 -112 0
9 59 109 30 80 130 0
-9 59 109 -30 80 130 0
9 -59 109 30 -80 130 0
-9 -59 109 -30 -80 130 0
9 59 -109 30 80 -130 0
9 59 109 32 82 132 0
-9 59 109 -32 82 132 0
9 -59 109 32 -82 132 0
-9 -59 109 -32 -82 132 0
9 59 -109 32 82 -132 0
9 59 109 35 85 135 0
-9 59 109 -35 85 135 0
9 -59 109 35 -85 135 0
-9 -59 109 -35 -85 135 0
9 59 -109 35 85 -135 0
9 59 109 45 95 145 0
-9 59 109 -45 95 145 0
9 -59 109 45 -95 145 0
-9 -59 109 -45 -95 145 0
9 59 -109 45 95 -145 0
9 59 109 13 63 113 0
-9 59 109 -13 63 113 0
9 -59 109 13 -63 113 0
-9 -59 109 -13 -63 113 0
9 59 -109 13 63 -113 0
9 59 109 15 65 115 0
-9 59 109 -15 65 115 0
9 -59 109 15 -65 115 0
-9 -59 109 -15 -65 115 0
9 59 -109 15 65 -115 0
9 59 109 44 94 144 0
-9 59 109 -44 94 144 0
9 -59 109 44 -94 144 0
-9 -59 109 -44 -94 144 0
9 59 -109 44 94 -144 0
9 59 109 27 77 127 0
-9 59 109 -27 77 127 0
9 -59 109 27 -77 127 0
-9 -59 109 -27 -77 127 0
9 59 -109 27 77 -127 0
10 60 110 36 86 136 0
-10 60 110 -36 86 136 0
10 -60 110 36 -86 136 0
-10 -60 110 -36 -86 136 0
10 60 -110 36 86 -136 0
10 60 110 20 70 120 0
-10 60 110 -20 70 120 0
10 -60 110 20 -70 120 0
-10 -60 110 -20 -70 120 0
10 60 -110 20 70 -120 0
10 60 110 31 81 131 0
-10 60 110 -31 81 131 0
10 -60 110 31 -81 131 0
-10 -60 110 -31 -81 131 0
10 60 -110 31 81 -131 0
10 60 110 20 70 120 0
-10 60 110 -20 70 120 0
10 -60 110 20 -70 120 0
-10 -60 110 -20 -70 120 0
10 60 -110 20 70 -120 0
10 60 110 21 71 121 0
-10 60 110 -21 71 121 0
10 -60 110 21 -71 121 0
-10 -60 110 -21 -71 121 0
10 60 -110 21 71 -121 0
10 60 110 26 76 126 0
-10 60 110 -26 76 126 0
10 -60 110 26 -76 126 0
-10 -60 110 -26 -76 126 0
10 60 -110 26 76 -126 0
10 60 110 19 69 119 0
-10 60 110 -19 69 119 0
10 -60 110 19 -69 119 0
-10 -60 110 -19 -69 119 0
10 60 -110 19 69 -119 0
10 60 110 43 93 143 0
-10 60 110 -43 93 143 0
10 -60 110 43 -93 143 0
-10 -60 110 -43 -93 143 0
10 60 -110 43 93 -143 0
10 60 110 16 66 116 0
-10 60 110 -16 66 116 0
10 -60 110 16 -66 116 0
-10 -60 110 -16 -66 116 0
10 60 -110 16 66 -116 0
10 60 110 19 69 119 0
-10 60 110 -19 69 119 0
10 -60 110 19 -69 119 0
-10 -60 110 -19 -69 119 0
10 60 -110 19 69 -119 0
11 61 111 37 87 137 0
-11 61 111 -37 87 137 0
11 -61 111 37 -87 137 0
-11 -61 111 -37 -87 137 0
11 61 -111 37 87 -137 0
11 61 111 18 68 118 0
-11 61 111 -18 68 118 0
11 -61 111 18 -68 118 0
-11 -61 111 -18 -68 118 0
11 61 -111 18 68 -118 0
11 61 111 32 82 132 0
-11 61 111 -32 82 132 0
11 -61 111 32 -82 132 0
-11 -61 111 -32 -82 132 0
11 61 -111 32 82 -132 0
11 61 111 46 96 146 0
-11 61 111 -46 96 146 0
11 -61 111 46 -96 146 0
-11 -61 111 -46 -96 146 0
11 61 -111 46 96 -146 0
11 61 111 50 100 150 0
-11 61 111 -50 100 150 0
11 -61 111 50 -100 150 0
-11 -61 111 -50 -100 150 0
11 61 -111 50 100 -150 0
11 61 111 24 74 124 0
-11 61 111 -24 74 124 0
11 -61 111 24 -74 124 0
-11 -61 111 -24 -74 124 0
11 61 -111 24 74 -124 0
11 61 111 50 100 150 0
-11 61 111 -50 100 150 0
11 -61 111 50 -100 150 0
-11 -61 111 -50 -100 150 0
11 61 -111 50 100 -150 0
11 61 111 36 86 136 0
-11 61 111 -36 86 136 0
11 -61 111 36 -86 136 0
-11 -61 111 -36 -86 136 0
11 61 -111 36 86 -136 0
11 61 111 29 79 129 0
-11 61 111 -29 79 129 0
11 -61 111 29 -79 129 0
-11 -61 111 -29 -79 129 0
11 61 -111 29 79 -129 0
12 62 112 24 74 124 0
-12 62 112 -24 74 124 0
12 -62 112 24 -74 124 0
-12 -62 112 -24 -74 124 0
12 62 -112 24 74 -124 0
12 62 112 36 86 136 0
-12 62 112 -36 86 136 0
12 -62 112 36 -86 136 0
-12 -62 112 -36 -86 136 0
12 62 -112 36 86 -136 0
12 62 112 38 88 138 0
-12 62 112 -38 88 138 0
12 -62 112 38 -88 138 0
-12 -62 112 -38 -88 138 0
12 62 -112 38 88 -138 0
12 62 112 46 96 146 0
-12 62 112 -46 96 146 0
12 -62 112 46 -96 146 0
-12 -62 112 -46 -96 146 0
12 62 -112 46 96 -146 0
12 62 112 39 89 139 0
-12 62 112 -39 89 139 0
12 -62 112 39 -89 139 0
-12 -62 112 -39 -89 139 0
12 62 -112 39 89 -139 0
12 62 112 16 66 116 0
-12 62 112 -16 66 116 0
12 -62 112 16 -66 116 0
-12 -62 112 -16 -66 116 0
12 62 -112 16 66 -116 0
13 63 113 33 83 133 0
-13 63 113 -33 83 133 0
13 -63 113 33 -83 133 0
-13 -63 113 -33 -83 133 0
13 63 -113 33 83 -133 0
13 63 113 39 89 139 0
-13 63 113 -39 89 139 0
13 -63 113 39 -89 139 0
-13 -63 113 -39 -89 139 0
13 63 -113 39 89 -139 0
13 63 113 25 75 125 0
-13 63 113 -25 75 125 0
13 -63 113 25 -75 125 0
-13 -63 113 -25 -75 125 0
13 63 -113 25 75 -125 0
13 63 113 29 79 129 0
-13 63 113 -29 79 129 0
13 -63 113 29 -79 129 0
-13 -63 113 -29 -79 129 0
13 63 -113 29 79 -129 0
13 63 113 48 98 148 0
-13 63 113 -48 98 148 0
13 -63 113 48 -98 148 0
-13 -63 113 -48 -98 148 0
13 63 -113 48 98 -148 0
13 63 113 27 77 127 0
-13 63 113 -27 77 127 0
13 -63 113 27 -77 127 0
-13 -63 113 -27 -77 127 0
13 63 -113 27 77 -127 0
13 63 113 50 100 150 0
-13 63 113 -50 100 150 0
13 -63 113 50 -100 150 0
-13 -63 113 -50 -100 150 0
13 63 -113 50 100 -150 0
13 63 113 17 67 117 0
-13 63 113 -17 67 117 0
13 -63 113 17 -67 117 0
-13 -63 113 -17 -67 117 0
13 63 -113 17 67 -117 0
13 63 113 21 71 121 0
-13 63 113 -21 71 121 0
13 -63 113 21 -71 121 0
-13 -63 113 -21 -71 121 0
13 63 -113 21 71 -121 0
14 64 114 22 72 122 0
-14 64 114 -22 72 122 0
14 -64 114 22 -72 122 0
-14 -64 114 -22 -72 122 0
14 64 -114 22 72 -122 0
14 64 114 45 95 145 0
-14 64 114 -45 95 145 0
14 -64 114 45 -95 145 0
-14 -64 114 -45 -95 145 0
14 64 -114 45 95 -145 0
14 64 114 18 68 118 0
-14 64 114 -18 68 118 0
14 -64 114 18 -68 118 0
-14 -64 114 -18 -68 118 0
14 64 -114 18 68 -118 0
14 64 114 21 71 121 0
-14 64 114 -21 71 121 0
14 -64 114 21 -71 121 0
-14 -64 114 -21 -71 121 0
14 64 -114 21 71 -121 0
14 64 114 40 90 140 0
-14 64 114 -40 90 140 0
14 -64 114 40 -90 140 0
-14 -64 114 -40 -90 140 0
14 64 -114 40 90 -140 0
14 64 114 15 65 115 0
-14 64 114 -15 65 115 0
14 -64 114 15 -65 115 0
-14 -64 114 -15 -65 115 0
14 64 -114 15 65 -115 0
14 64 114 16 66 116 0
-14 64 114 -16 66 116 0
14 -64 114 16 -66 116 0
-14 -64 114 -16 -66 116 0
14 64 -114 16 66 -116 0
14 64 114 33 83 133 0
-14 64 114 -33 83 133 0
14 -64 114 33 -83 133 0
-14 -64 114 -33 -83 133 0
14 64 -114 33 83 -133 0
14 64 114 49 99 149 0
-14 64 114 -49 99 149 0
14 -64 114 49 -99 149 0
-14 -64 114 -49 -99 149 0
14 64 -114 49 99 -149 0
15 65 115 24 74 124 0
-15 65 115 -24 74 124 0
15 -65 115 24 -74 124 0
-15 -65 115 -24 -74 124 0
15 65 -115 24 74 -124 0
15 65 115 42 92 142 0
-15 65 115 -42 92 142 0
15 -65 115 42 -92 142 0
-15 -65 115 -42 -92 142 0
15 65 -115 42 92 -142 0
15 65 115 47 97 147 0
-15 65 115 -47 97 147 0
15 -65 115 47 -97 147 0
-15 -65 115 -47 -97 147 0
15 65 -115 47 97 -147 0
15 65 115 40 90 140 0
-15 65 115 -40 90 140 0
15 -65 115 40 -90 140 0
-15 -65 115 -40 -90 140 0
15 65 -115 40 90 -140 0
15 65 115 44 94 144 0
-15 65 115 -44 94 144 0
15 -65 115 44 -94 144 0
-15 -65 115 -44 -94 144 0
15 65 -115 44 94 -144 0
15 65 115 29 79 129 0
-15 65 115 -29 79 129 0
15 -65 115 29 -79 129 0
-15 -65 115 -29 -79 129 0
15 65 -115 29 79 -129 0
15 65 115 24 74 124 0
-15 65 115 -24 74 124 0
15 -65 115 24 -74 124 0
-15 -65 115 -24 -74 124 0
15 65 -115 24 74 -124 0
15 65 115 44 94 144 0
-15 65 115 -44 94 144 0
15 -65 115 44 -94 144 0
-15 -65 115 -44 -94 144 0
15 65 -115 44 94 -144 0
16 66 116 17 67 117 0
-16 66 116 -17 67 117 0
16 -66 116 17 -67 117 0
-16 -66 116 -17 -67 117 0
16 66 -116 17 67 -117 0
16 66 116 37 87 137 0
-16 66 116 -37 87 137 0
16 -66 116 37 -87 137 0
-16 -66 116 -37 -87 137 0
16 66 -116 37 87 -137 0
16 66 116 35 85 135 0
-16 66 116 -35 85 135 0
16 -66 116 35 -85 135 0
-16 -66 116 -35 -85 135 0
16 66 -116 35 85 -135 0
16 66 116 35 85 135 0
-16 66 116 -35 85 135 0
16 -66 116 35 -85 135 0
-16 -66 116 -35 -85 135 0
16 66 -116 35 85 -135 0
16 66 116 43 93 143 0
-16 66 116 -43 93 143 0
16 -66 116 43 -93 143 0
-16 -66 116 -43 -93 143 0
16 66 -116 43 93 -143 0
16 66 116 17 67 117 0
-16 66 116 -17 67 117 0
16 -66 116 17 -67 117 0
-16 -66 116 -17 -67 117 0
16 66 -116 17 67 -117 0
17 67 117 36 86 136 0
-17 67 117 -36 86 136 0
17 -67 117 36 -86 136 0
-17 -67 117 -36 -86 136 0
17 67 -117 36 86 -136 0
17 67 117 22 72 122 0
-17 67 117 -22 72 122 0
17 -67 117 22 -72 122 0
-17 -67 117 -22 -72 122 0
17 67 -117 22 72 -122 0
17 67 117 27 77 127 0
-17 67 117 -27 77 127 0
17 -67 117 27 -77 127 0
-17 -67 117 -27 -77 127 0
17 67 -117 27 77 -127 0
17 67 117 18 68 118 0
-17 67 117 -18 68 118 0
17 -67 117 18 -68 118 0
-17 -67 117 -18 -68 118 0
17 67 -117 18 68 -118 0
17 67 117 39 89 139 0
-17 67 117 -39 89 139 0
17 -67 117 39 -89 139 0
-17 -67 117 -39 -89 139 0
17 67 -117 39 89 -139 0
17 67 117 38 88 138 0
-17 67 117 -38 88 138 0
17 -67 117 38 -88 138 0
-17 -67 117 -38 -88 138 0
17 67 -117 38 88 -138 0
17 67 117 41 91 141 0
-17 67 117 -41 91 141 0
17 -67 117 41 -91 141 0
-17 -67 117 -41 -91 141 0
17 67 -117 41 91 -141 0
18 68 118 20 70 120 0
-18 68 118 -20 70 120 0
18 -68 118 20 -70 120 0
-18 -68 118 -20 -70 120 0
18 68 -118 20 70 -120 0
18 68 118 48 98 148 0
-18 68 118 -48 98 148 0
18 -68 118 48 -98 148 0
-18 -68 118 -48 -98 148 0
18 68 -118 48 98 -148 0
18 68 118 46 96 146 0
-18 68 118 -46 96 146 0
18 -68 118 46 -96 146 0
-18 -68 118 -46 -96 146 0
18 68 -118 46 96 -146 0
18 68 118 30 80 130 0
-18 68 118 -30 80 130 0
18 -68 118 30 -80 130 0
-18 -68 118 -30 -80 130 0
18 68 -118 30 80 -130 0
18 68 118 43 93 143 0
-18 68 118 -43 93 143 0
18 -68 118 43 -93 143 0
-18 -68 118 -43 -93 143 0
18 68 -118 43 93 -143 0
18 68 118 39 89 139 0
-18 68 118 -39 89 139 0
18 -68 118 39 -89 139 0
-18 -68 118 -39 -89 139 0
18 68 -118 39 89 -139 0
18 68 118 43 93 143 0
-18 68 118 -43 93 143 0
18 -68 118 43 -93 143 0
-18 -68 118 -43 -93 143 0
18 68 -118 43 93 -143 0
19 69 119 26 76 126 0
-19 69 119 -26 76 126 0
19 -69 119 26 -76 126 0
-19 -69 119 -26 -76 126 0
19 69 -119 26 76 -126 0
19 69 119 33 83 133 0
-19 69 119 -33 83 133 0
19 -69 119 33 -83 133 0
-19 -69 119 -33 -83 133 0
19 69 -119 33 83 -133 0
19 69 119 47 97 147 0
-19 69 119 -47 97 147 0
19 -69 119 47 -97 147 0
-19 -69 119 -47 -97 147 0
19 69 -119 47 97 -147 0
19 69 119 47 97 147 0
-19 69 119 -47 97 147 0
19 -69 119 47 -97 147 0
-19 -69 119 -47 -97 147 0
19 69 -119 47 97 -147 0
19 69 119 25 75 125 0
-19 69 119 -25 75 125 0
19 -69 119 25 -75 125 0
-19 -69 119 -25 -75 125 0
19 69 -119 25 75 -125 0
19 69 119 41 91 141 0
-19 69 119 -41 91 141 0
19 -69 119 41 -91 141 0
-19 -69 119 -41 -91 141 0
19 69 -119 41 91 -141 0
19 69 119 42 92 142 0
-19 69 119 -42 92 142 0
19 -69 119 42 -92 142 0
-19 -69 119 -42 -92 142 0
19 69 -119 42 92 -142 0
19 69 119 40 90 140 0
-19 69 119 -40 90 140 0
19 -69 119 40 -90 140 0
-19 -69 119 -40 -90 140 0
19 69 -119 40 90 -140 0
19 69 119 45 95 145 0
-19 69 119 -45 95 145 0
19 -69 119 45 -95 145 0
-19 -69 119 -45 -95 145 0
19 69 -119 45 95 -145 0
20 70 120 38 88 138 0
-20 70 120 -38 88 138 0
20 -70 120 38 -88 138 0
-20 -70 120 -38 -88 138 0
20 70 -120 38 88 -138 0
20 70 120 29 79 129 0
-20 70 120 -29 79 129 0
20 -70 120 29 -79 129 0
-20 -70 120 -29 -79 129 0
20 70 -120 29 79 -129 0
20 70 120 28 78 128 0
-20 70 120 -28 78 128 0
20 -70 120 28 -78 128 0
-20 -70 120 -28 -78 128 0
20 70 -120 28 78 -128 0
20 70 120 42 92 142 0
-20 70 120 -42 92 142 0
20 -70 120 42 -92 142 0
-20 -70 120 -42 -92 142 0
20 70 -120 42 92 -142 0
20 70 120 39 89 139 0
-20 70 120 -39 89 139 0
20 -70 120 39 -89 139 0
-20 -70 120 -39 -89 139 0
20 70 -120 39 89 -139 0
20 70 120 46 96 146 0
-20 70 120 -46 96 146 0
20 -70 120 46 -96 146 0
-20 -70 120 -46 -96 146 0
20 70 -120 46 96 -146 0
21 71 121 37 87 137 0
-21 71 121 -37 87 137 0
21 -71 121 37 -87 137 0
-21 -71 121 -37 -87 137 0
21 71 -121 37 87 -137 0
21 71 121 41 91 141 0
-21 71 121 -41 91 141 0
21 -71 121 41 -91 141 0
-21 -71 121 -41 -91 141 0
21 71 -121 41 91 -141 0
21 71 121 31 81 131 0
-21 71 121 -31 81 131 0
21 -71 121 31 -81 131 0
-21 -71 121 -31 -81 131 0
21 71 -121 31 81 -131 0
21 71 121 26 76 126 0
-21 71 121 -26 76 126 0
21 -71 121 26 -76 126 0
-21 -71 121 -26 -76 126 0
21 71 -121 26 76 -126 0
21 71 121 36 86 136 0
-21 71 121 -36 86 136 0
21 -71 121 36 -86 136 0
-21 -71 121 -36 -86 136 0
21 71 -121 36 86 -136 0
21 71 121 40 90 140 0
-21 71 121 -40 90 140 0
21 -71 121 40 -90 140 0
-21 -71 121 -40 -90 140 0
21 71 -121 40 90 -140 0
21 71 121 26 76 126 0
-21 71 121 -26 76 126 0
21 -71 121 26 -76 126 0
-21 -71 121 -26 -76 126 0
21 71 -121 26 76 -126 0
21 71 121 28 78 128 0
-21 71 121 -28 78 128 0
21 -71 121 28 -78 128 0
-21 -71 121 -28 -78 128 0
21 71 -121 28 78 -128 0
22 72 122 44 94 144 0
-22 72 122 -44 94 144 0
22 -72 122 44 -94 144 0
-22 -72 122 -44 -94 144 0
22 72 -122 44 94 -144 0
22 72 122 41 91 141 0
-22 72 122 -41 91 141 0
22 -72 122 41 -91 141 0
-22 -72 122 -41 -91 141 0
22 72 -122 41 91 -141 0
22 72 122 35 85 135 0
-22 72 122 -35 85 135 0
22 -72 122 35 -85 135 0
-22 -72 122 -35 -85 135 0
22 72 -122 35 85 -135 0
22 72 122 43 93 143 0
-22 72 122 -43 93 143 0
22 -72 122 43 -93 143 0
-22 -72 122 -43 -93 143 0
22 72 -122 43 93 -143 0
22 72 122 47 97 147 0
-22 72 122 -47 97 147 0
22 -72 122 47 -97 147 0
-22 -72 122 -47 -97 147 0
22 72 -122 47 97 -147 0
22 72 122 29 79 129 0
-22 72 122 -29 79 129 0
22 -72 122 29 -79 129 0
-22 -72 122 -29 -79 129 0
22 72 -122 29 79 -129 0
22 72 122 45 95 145 0
-22 72 122 -45 95 145 0
22 -72 122 45 -95 145 0
-22 -72 122 -45 -95 145 0
22 72 -122 45 95 -145 0
23 73 123 31 81 131 0
-23 73 123 -31 81 131 0
23 -73 123 31 -81 131 0
-23 -73 123 -31 -81 131 0
23 73 -123 31 81 -131 0
23 73 123 34 84 134 0
-23 73 123 -34 84 134 0
23 -73 123 34 -84 134 0
-23 -73 123 -34 -84 134 0
23 73 -123 34 84 -134 0
23 73 123 48 98 148 0
-23 73 123 -48 98 148 0
23 -73 123 48 -98 148 0
-23 -73 123 -48 -98 148 0
23 73 -123 48 98 -148 0
23 73 123 44 94 144 0
-23 73 123 -44 94 144 0
23 -73 123 44 -94 144 0
-23 -73 123 -44 -94 144 0
23 73 -123 44 94 -144 0
23 73 123 34 84 134 0
-23 73 123 -34 84 134 0
23 -73 123 34 -84 134 0
-23 -73 123 -34 -84 134 0
23 73 -123 34 84 -134 0
23 73 123 30 80 130 0
-23 73 123 -30 80 130 0
23 -73 123 30 -80 130 0
-23 -73 123 -30 -80 130 0
23 73 -123 30 80 -130 0
23 73 123 48 98 148 0
-23 73 123 -48 98 148 0
23 -73 123 48 -98 148 0
-23 -73 123 -48 -98 148 0
23 73 -123 48 98 -148 0
23 73 123 34 84 134 0
-23 73 123 -34 84 134 0
23 -73 123 34 -84 134 0
-23 -73 123 -34 -84 134 0
23 73 -123 34 84 -134 0
23 73 123 48 98 148 0
-23 73 123 -48 98 148 0
23 -73 123 48 -98 148 0
-23 -73 123 -48 -98 148 0
23 73 -123 48 98 -148 0
24 74 124 40 90 140 0
-24 74 124 -40 90 140 0
24 -74 124 40 -90 140 0
-24 -74 124 -40 -90 140 0
24 74 -124 40 90 -140 0
24 74 124 30 80 130 0
-24 74 124 -30 80 130 0
24 -74 124 30 -80 130 0
-24 -74 124 -30 -80 130 0
24 74 -124 30 80 -130 0
24 74 124 43 93 143 0
-24 74 124 -43 93 143 0
24 -74 124 43 -93 143 0
-24 -74 124 -43 -93 143 0
24 74 -124 43 93 -143 0
24 74 124 45 95 145 0
-24 74 124 -45 95 145 0
24 -74 124 45 -95 145 0
-24 -74 124 -45 -95 145 0
24 74 -124 45 95 -145 0
24 74 124 47 97 147 0
-24 74 124 -47 97 147 0
24 -74 124 47 -97 147 0
-24 -74 124 -47 -97 147 0
24 74 -124 47 97 -147 0
24 74 124 44 94 144 0
-24 74 124 -44 94 144 0
24 -74 124 44 -94 144 0
-24 -74 124 -44 -94 144 0
24 74 -124 44 94 -144 0
24 74 124 25 75 125 0
-24 74 124 -25 75 125 0
24 -74 124 25 -75 125 0
-24 -74 124 -25 -75 125 0
24 74 -124 25 75 -125 0
25 75 125 39 89 139 0
-25 75 125 -39 89 139 0
25 -75 125 39 -89 139 0
-25 -75 125 -39 -89 139 0
25 75 -125 39 89 -139 0
25 75 125 40 90 140 0
-25 75 125 -40 90 140 0
25 -75 125 40 -90 140 0
-25 -75 125 -40 -90 140 0
25 75 -125 40 90 -140 0
25 75 125 26 76 126 0
-25 75 125 -26 76 126 0
25 -75 125 26 -76 126 0
-25 -75 125 -26 -76 126 0
25 75 -125 26 76 -126 0
25 75 125 37 87 137 0
-25 75 125 -37 87 137 0
25 -75 125 37 -87 137 0
-25 -75 125 -37 -87 137 0
25 75 -125 37 87 -137 0
26 76 126 28 78 128 0
-26 76 126 -28 78 128 0
26 -76 126 28 -78 128 0
-26 -76 126 -28 -78 128 0
26 76 -126 28 78 -128 0
26 76 126 50 100 150 0
-26 76 126 -50 100 150 0
26 -76 126 50 -100 150 0
-26 -76 126 -50 -100 150 0
26 76 -126 50 100 -150 0
26 76 126 49 99 149 0
-26 76 126 -49 99 149 0
26 -76 126 49 -99 149 0
-26 -76 126 -49 -99 149 0
26 76 -126 49 99 -149 0
26 76 126 28 78 128 0
-26 76 126 -28 78 128 0
26 -76 126 28 -78 128 0
-26 -76 126 -28 -78 128 0
26 76 -126 28 78 -128 0
27 77 127 47 97 147 0
-27 77 127 -47 97 147 0
27 -77 127 47 -97 147 0
-27 -77 127 -47 -97 147 0
27 77 -127 47 97 -147 0
27 77 127 32 82 132 0
-27 77 127 -32 82 132 0
27 -77 127 32 -82 132 0
-27 -77 127 -32 -82 132 0
27 77 -127 32 82 -132 0
27 77 127 35 85 135 0
-27 77 127 -35 85 135 0
27 -77 127 35 -85 135 0
-27 -77 127 -35 -85 135 0
27 77 -127 35 85 -135 0
27 77 127 29 79 129 0
-27 77 127 -29 79 129 0
27 -77 127 29 -79 129 0
-27 -77 127 -29 -79 129 0
27 77 -127 29 79 -129 0
27 77 127 43 93 143 0
-27 77 127 -43 93 143 0
27 -77 127 43 -93 143 0
-27 -77 127 -43 -93 143 0
27 77 -127 43 93 -143 0
27 77 127 46 96 146 0
-27 77 127 -46 96 146 0
27 -77 127 46 -96 146 0
-27 -77 127 -46 -96 146 0
27 77 -127 46 96 -146 0
28 78 128 46 96 146 0
-28 78 128 -46 96 146 0
28 -78 128 46 -96 146 0
-28 -78 128 -46 -96 146 0
28 78 -128 46 96 -146 0
28 78 128 32 82 132 0
-28 78 128 -32 82 132 0
28 -78 128 32 -82 132 0
-28 -78 128 -32 -82 132 0
28 78 -128 32 82 -132 0
28 78 128 50 100 150 0
-28 78 128 -50 100 150 0
28 -78 128 50 -100 150 0
-28 -78 128 -50 -100 150 0
28 78 -128 50 100 -150 0
28 78 128 41 91 141 0
-28 78 128 -41 91 141 0
28 -78 128 41 -91 141 0
-28 -78 128 -41 -91 141 0
28 78 -128 41 91 -141 0
29 79 129 30 80 130 0
-29 79 129 -30 80 130 0
29 -79 129 30 -80 130 0
-29 -79 129 -30 -80 130 0
29 79 -129 30 80 -130 0
29 79 129 46 96 146 0
-29 79 129 -46 96 146 0
29 -79 129 46 -96 146 0
-29 -79 129 -46 -96 146 0
29 79 -129 46 96 -146 0
29 79 129 49 99 149 0
-29 79 129 -49 99 149 0
29 -79 129 49 -99 149 0
-29 -79 129 -49 -99 149 0
29 79 -129 49 99 -149 0
29 79 129 46 96 146 0
-29 79 129 -46 96 146 0
29 -79 129 46 -96 146 0
-29 -79 129 -46 -96 146 0
29 79 -129 46 96 -146 0
30 80 130 31 81 131 0
-30 80 130 -31 81 131 0
30 -80 130 31 -81 131 0
-30 -80 130 -31 -81 131 0
30 80 -130 31 81 -131 0
30 80 130 41 91 141 0
-30 80 130 -41 91 141 0
30 -80 130 41 -91 141 0
-30 -80 130 -41 -91 141 0
30 80 -130 41 91 -141 0
30 80 130 36 86 136 0
-30 80 130 -36 86 136 0
30 -80 130 36 -86 136 0
-30 -80 130 -36 -86 136 0
30 80 -130 36 86 -136 0
31 81 131 40 90 140 0
-31 81 131 -40 90 140 0
31 -81 131 40 -90 140 0
-31 -81 131 -40 -90 140 0
31 81 -131 40 90 -140 0
31 81 131 40 90 140 0
-31 81 131 -40 90 140 0
31 -81 131 40 -90 140 0
-31 -81 131 -40 -90 140 0
31 81 -131 40 90 -140 0
31 81 131 45 95 145 0
-31 81 131 -45 95 145 0
31 -81 131 45 -95 145 0
-31 -81 131 -45 -95 145 0
31 81 -131 45 95 -145 0
31 81 131 42 92 142 0
-31 81 131 -42 92 142 0
31 -81 131 42 -92 142 0
-31 -81 131 -42 -92 142 0
31 81 -131 42 92 -142 0
31 81 131 50 100 150 0
-31 81 131 -50 100 150 0
31 -81 131 50 -100 150 0
-31 -81 131 -50 -100 150 0
31 81 -131 50 100 -150 0
32 82 132 33 83 133 0
-32 82 132 -33 83 133 0
32 -82 132 33 -83 133 0
-32 -82 132 -33 -83 133 0
32 82 -132 33 83 -133 0
32 82 132 46 96 146 0
-32 82 132 -46 96 146 0
32 -82 132 46 -96 146 0
-32 -82 132 -46 -96 146 0
32 82 -132 46 96 -146 0
32 82 132 45 95 145 0
-32 82 132 -45 95 145 0
32 -82 132 45 -95 145 0
-32 -82 132 -45 -95 145 0
32 82 -132 45 95 -145 0
32 82 132 36 86 136 0
-32 82 132 -36 86 136 0
32 -82 132 36 -86 136 0
-32 -82 132 -36 -86 136 0
32 82 -132 36 86 -136 0
32 82 132 36 86 136 0
-32 82 132 -36 86 136 0
32 -82 132 36 -86 136 0
-32 -82 132 -36 -86 136 0
32 82 -132 36 86 -136 0
33 83 133 48 98 148 0
-33 83 133 -48 98 148 0
33 -83 133 48 -98 148 0
-33 -83 133 -48 -98 148 0
33 83 -133 48 98 -148 0
33 83 133 35 85 135 0
-33 83 133 -35 85 135 0
33 -83 133 35 -85 135 0
-33 -83 133 -35 -85 135 0
33 83 -133 35 85 -135 0
33 83 133 38 88 138 0
-33 83 133 -38 88 138 0
33 -83 133 38 -88 138 0
-33 -83 133 -38 -88 138 0
33 83 -133 38 88 -138 0
33 83 133 38 88 138 0
-33 83 133 -38 88 138 0
33 -83 133 38 -88 138 0
-33 -83 133 -38 -88 138 0
33 83 -133 38 88 -138 0
33 83 133 48 98 148 0
-33 83 133 -48 98 148 0
33 -83 133 48 -98 148 0
-33 -83 133 -48 -98 148 0
33 83 -133 48 98 -148 0
33 83 133 42 92 142 0
-33 83 133 -42 92 142 0
33 -83 133 42 -92 142 0
-33 -83 133 -42 -92 142 0
33 83 -133 42 92 -142 0
34 84 134 40 90 140 0
-34 84 134 -40 90 140 0
34 -84 134 40 -90 140 0
-34 -84 134 -40 -90 140 0
34 84 -134 40 90 -140 0
34 84 134 47 97 147 0
-34 84 134 -47 97 147 0
34 -84 134 47 -97 147 0
-34 -84 134 -47 -97 147 0
34 84 -134 47 97 -147 0
34 84 134 42 92 142 0
-34 84 134 -42 92 142 0
34 -84 134 42 -92 142 0
-34 -84 134 -42 -92 142 0
34 84 -134 42 92 -142 0
34 84 134 37 87 137 0
-34 84 134 -37 87 137 0
34 -84 134 37 -87 137 0
-34 -84 134 -37 -87 137 0
34 84 -134 37 87 -137 0
34 84 134 50 100 150 0
-34 84 134 -50 100 150 0
34 -84 134 50 -100 150 0
-34 -84 134 -50 -100 150 0
34 84 -134 50 100 -150 0
35 85 135 39 89 139 0
-35 85 135 -39 89 139 0
35 -85 135 39 -89 139 0
-35 -85 135 -39 -89 139 0
35 85 -135 39 89 -139 0
35 85 135 50 100 150 0
-35 85 135 -50 100 150 0
35 -85 135 50 -100 150 0
-35 -85 135 -50 -100 150 0
35 85 -135 50 100 -150 0
36 86 136 48 98 148 0
-36 86 136 -48 98 148 0
36 -86 136 48 -98 148 0
-36 -86 136 -48 -98 148 0
36 86 -136 48 98 -148 0
36 86 136 42 92 142 0
-36 86 136 -42 92 142 0
36 -86 136 42 -92 142 0
-36 -86 136 -42 -92 142 0
36 86 -136 42 92 -142 0
37 87 137 38 88 138 0
-37 87 137 -38 88 138 0
37 -87 137 38 -88 138 0
-37 -87 137 -38 -88 138 0
37 87 -137 38 88 -138 0
37 87 137 39 89 139 0
-37 87 137 -39 89 139 0
37 -87 137 39 -89 139 0
-37 -87 137 -39 -89 139 0
37 87 -137 39 89 -139 0
37 87 137 38 88 138 0
-37 87 137 -38 88 138 0
37 -87 137 38 -88 138 0
-37 -87 137 -38 -88 138 0
37 87 -137 38 88 -138 0
38 88 138 49 99 149 0
-38 88 138 -49 99 149 0
38 -88 138 49 -99 149 0
-38 -88 138 -49 -99 149 0
38 88 -138 49 99 -149 0
38 88 138 46 96 146 0
-38 88 138 -46 96 146 0
38 -88 138 46 -96 146 0
-38 -88 138 -46 -96 146 0
38 88 -138 46 96 -146 0
39 89 139 41 91 141 0
-39 89 139 -41 91 141 0
39 -89 139 41 -91 141 0
-39 -89 139 -41 -91 141 0
39 89 -139 41 91 -141 0
39 89 139 45 95 145 0
-39 89 139 -45 95 145 0
39 -89 139 45 -95 145 0
-39 -89 139 -45 -95 145 0
39 89 -139 45 95 -145 0
39 89 139 40 90 140 0
-39 89 139 -40 90 140 0
39 -89 139 40 -90 140 0
-39 -89 139 -40 -90 140 0
39 89 -139 40 90 -140 0
40 90 140 45 95 145 0
-40 90 140 -45 95 145 0
40 -90 140 45 -95 145 0
-40 -90 140 -45 -95 145 0
40 90 -140 45 95 -145 0
42 92 142 49 99 149 0
-42 92 142 -49 99 149 0
42 -92 142 49 -99 149 0
-42 -92 142 -49 -99 149 0
42 92 -142 49 99 -149 0
42 92 142 49 99 149 0
-42 92 142 -49 99 149 0
42 -92 142 49 -99 149 0
-42 -92 142 -49 -99 149 0
42 92 -142 49 99 -149 0
43 93 143 44 94 144 0
-43 93 143 -44 94 144 0
43 -93 143 44 -94 144 0
-43 -93 143 -44 -94 144 0
43 93 -143 44 94 -144 0
44 94 144 49 99 149 0
-44 94 144 -49 99 149 0
44 -94 144 49 -99 149 0
-44 -94 144 -49 -99 149 0
44 94 -144 49 99 -149 0
44 94 144 48 98 148 0
-44 94 144 -48 98 148 0
44 -94 144 48 -98 148 0
-44 -94 144 -48 -98 148 0
44 94 -144 48 98 -148 0
45 95 145 50 100 150 0
-45 95 145 -50 100 150 0
45 -95 145 50 -100 150 0
-45 -95 145 -50 -100 150 0
45 95 -145 50 100 -150 0
45 95 145 49 99 149 0
-45 95 145 -49 99 149 0
45 -95 145 49 -99 149 0
-45 -95 145 -49 -99 149 0
45 95 -145 49 99 -149 0
47 97 147 48 98 148 0
-47 97 147 -48 98 148 0
47 -97 147 48 -98 148 0
-47 -97 147 -48 -98 148 0
47 97 -147 48 98 -148 0
49 99 149 50 100 150 0
-49 99 149 -50 100 150 0
49 -99 149 50 -100 150 0
-49 -99 149 -50 -100 150 0
49 99 -149 50 100 -150 0
